p cnf 119 283
1 0
6 7 0
-6 -7 0
8 9 0
-8 -9 0
-5 6 0
-5 8 0
5 -6 -8 0
10 -11 0
-10 11 0
-4 5 0
-4 10 0
4 -5 -10 0
14 15 0
-14 -15 0
16 17 0
-16 -17 0
-13 14 0
-13 16 0
13 -14 -16 0
18 -19 0
-18 19 0
-12 13 0
-12 18 0
12 -13 -18 0
3 -4 0
3 -12 0
-3 4 12 0
-22 3 0
22 -3 0
31 -15 0
-31 15 0
32 17 0
-32 -17 0
-30 31 0
-30 32 0
30 -31 -32 0
33 19 0
-33 -19 0
-29 30 0
-29 33 0
29 -30 -33 0
36 7 0
-36 -7 0
37 -9 0
-37 9 0
-35 36 0
-35 37 0
35 -36 -37 0
38 11 0
-38 -11 0
-34 35 0
-34 38 0
34 -35 -38 0
-28 29 0
-28 34 0
28 -29 -34 0
-40 12 0
40 -12 0
-41 4 0
41 -4 0
-39 40 0
-39 41 0
39 -40 -41 0
27 -28 0
27 -39 0
-27 28 39 0
45 15 0
-45 -15 0
46 -17 0
-46 17 0
-44 45 0
-44 46 0
44 -45 -46 0
47 19 0
-47 -19 0
-43 44 0
-43 47 0
43 -44 -47 0
-49 35 0
49 -35 0
50 -11 0
-50 11 0
-48 49 0
-48 50 0
48 -49 -50 0
-42 43 0
-42 48 0
42 -43 -48 0
26 -27 0
26 -42 0
-26 27 42 0
-52 43 0
52 -43 0
-53 4 0
53 -4 0
-51 52 0
-51 53 0
51 -52 -53 0
25 -26 0
25 -51 0
-25 26 51 0
-56 44 0
56 -44 0
57 -19 0
-57 19 0
-55 56 0
-55 57 0
55 -56 -57 0
60 -7 0
-60 7 0
61 9 0
-61 -9 0
-59 60 0
-59 61 0
59 -60 -61 0
62 11 0
-62 -11 0
-58 59 0
-58 62 0
58 -59 -62 0
-54 55 0
-54 58 0
54 -55 -58 0
24 -25 0
24 -54 0
-24 25 54 0
-65 13 0
65 -13 0
66 19 0
-66 -19 0
-64 65 0
-64 66 0
64 -65 -66 0
-67 34 0
67 -34 0
-63 64 0
-63 67 0
63 -64 -67 0
23 -24 0
23 -63 0
-23 24 63 0
-21 22 0
-21 23 0
21 -22 -23 0
-69 3 0
69 -3 0
-76 29 0
76 -29 0
-77 43 0
77 -43 0
-75 76 0
-75 77 0
75 -76 -77 0
-79 12 0
79 -12 0
-80 12 0
80 -12 0
-78 79 0
-78 80 0
78 -79 -80 0
74 -75 0
74 -78 0
-74 75 78 0
-82 43 0
82 -43 0
-83 55 0
83 -55 0
-81 82 0
-81 83 0
81 -82 -83 0
73 -74 0
73 -81 0
-73 74 81 0
-85 43 0
85 -43 0
-86 12 0
86 -12 0
-84 85 0
-84 86 0
84 -85 -86 0
72 -73 0
72 -84 0
-72 73 84 0
-88 55 0
88 -55 0
-89 29 0
89 -29 0
-87 88 0
-87 89 0
87 -88 -89 0
71 -72 0
71 -87 0
-71 72 87 0
-91 64 0
91 -64 0
-92 43 0
92 -43 0
-90 91 0
-90 92 0
90 -91 -92 0
70 -71 0
70 -90 0
-70 71 90 0
-68 69 0
-68 70 0
68 -69 -70 0
20 -21 0
20 -68 0
-20 21 68 0
2 -3 0
2 -20 0
-2 3 20 0
-100 58 0
100 -58 0
-101 43 0
101 -43 0
-99 100 0
-99 101 0
99 -100 -101 0
-103 4 0
103 -4 0
-104 12 0
104 -12 0
-102 103 0
-102 104 0
102 -103 -104 0
98 -99 0
98 -102 0
-98 99 102 0
-106 34 0
106 -34 0
-107 55 0
107 -55 0
-105 106 0
-105 107 0
105 -106 -107 0
97 -98 0
97 -105 0
-97 98 105 0
-109 34 0
109 -34 0
-110 12 0
110 -12 0
-108 109 0
-108 110 0
108 -109 -110 0
96 -97 0
96 -108 0
-96 97 108 0
-112 48 0
112 -48 0
-113 29 0
113 -29 0
-111 112 0
-111 113 0
111 -112 -113 0
95 -96 0
95 -111 0
-95 96 111 0
-116 5 0
116 -5 0
117 11 0
-117 -11 0
-115 116 0
-115 117 0
115 -116 -117 0
-118 43 0
118 -43 0
-114 115 0
-114 118 0
114 -115 -118 0
94 -95 0
94 -114 0
-94 95 114 0
-119 115 0
119 -115 0
-93 94 0
-93 119 0
93 -94 -119 0
-1 2 0
-1 93 0
1 -2 -93 0
